NAME: random-86-27607
TYPE: TSP
COMMENT: size=86 seed=27607
DIMENSION: 174
EDGE_WEIGHT_TYPE: EUC_2D
NODE_COORD_SECTION
+0 849 886
-0 849 886
+1 434 636
-1 402 519
+2 70 175
-2 291 822
+3 464 256
-3 784 240
+4 873 339
-4 32 769
+5 246 110
-5 790 457
+6 0 69
-6 7 102
+7 164 366
-7 122 208
+8 269 499
-8 983 764
+9 398 789
-9 180 352
+10 429 29
-10 901 293
+11 453 333
-11 657 909
+12 142 643
-12 87 235
+13 848 925
-13 530 818
+14 411 665
-14 10 984
+15 76 846
-15 552 439
+16 221 632
-16 530 568
+17 288 686
-17 405 32
+18 542 22
-18 327 911
+19 122 198
-19 94 922
+20 914 438
-20 417 225
+21 876 152
-21 107 406
+22 733 976
-22 377 629
+23 105 31
-23 718 877
+24 340 102
-24 421 259
+25 156 180
-25 634 415
+26 938 999
-26 95 915
+27 620 361
-27 685 491
+28 645 495
-28 695 724
+29 924 362
-29 266 884
+30 203 839
-30 504 117
+31 338 611
-31 467 629
+32 171 332
-32 705 908
+33 724 741
-33 372 506
+34 853 600
-34 427 986
+35 853 792
-35 575 369
+36 450 782
-36 475 188
+37 225 200
-37 934 282
+38 752 75
-38 567 677
+39 217 907
-39 168 492
+40 887 798
-40 182 73
+41 865 934
-41 762 68
+42 583 569
-42 395 8
+43 373 347
-43 541 135
+44 908 850
-44 21 686
+45 792 277
-45 300 333
+46 46 221
-46 705 671
+47 626 985
-47 938 927
+48 120 615
-48 73 771
+49 686 881
-49 337 15
+50 168 970
-50 482 216
+51 897 116
-51 645 984
+52 898 769
-52 784 276
+53 19 8
-53 775 945
+54 521 104
-54 955 406
+55 725 905
-55 835 79
+56 904 267
-56 14 554
+57 169 372
-57 416 130
+58 706 514
-58 781 412
+59 399 594
-59 899 207
+60 15 252
-60 156 99
+61 781 881
-61 778 276
+62 108 212
-62 956 738
+63 653 66
-63 440 139
+64 94 881
-64 415 621
+65 896 359
-65 793 628
+66 26 501
-66 537 755
+67 20 917
-67 377 449
+68 386 888
-68 472 252
+69 774 248
-69 536 567
+70 394 220
-70 413 611
+71 89 657
-71 787 278
+72 422 992
-72 267 265
+73 40 128
-73 473 614
+74 332 720
-74 677 5
+75 184 426
-75 909 73
+76 774 950
-76 841 395
+77 672 512
-77 441 703
+78 822 528
-78 699 133
+79 696 16
-79 440 742
+80 336 675
-80 284 309
+81 848 157
-81 265 887
+82 423 498
-82 708 571
+83 389 136
-83 20 618
+84 808 200
-84 476 359
+85 745 914
-85 49 664
+86 943 59
-86 454 197
PRECEDENCE_SECTION
+0 -0
+1 -1
+2 -2
+3 -3
+4 -4
+5 -5
+6 -6
+7 -7
+8 -8
+9 -9
+10 -10
+11 -11
+12 -12
+13 -13
+14 -14
+15 -15
+16 -16
+17 -17
+18 -18
+19 -19
+20 -20
+21 -21
+22 -22
+23 -23
+24 -24
+25 -25
+26 -26
+27 -27
+28 -28
+29 -29
+30 -30
+31 -31
+32 -32
+33 -33
+34 -34
+35 -35
+36 -36
+37 -37
+38 -38
+39 -39
+40 -40
+41 -41
+42 -42
+43 -43
+44 -44
+45 -45
+46 -46
+47 -47
+48 -48
+49 -49
+50 -50
+51 -51
+52 -52
+53 -53
+54 -54
+55 -55
+56 -56
+57 -57
+58 -58
+59 -59
+60 -60
+61 -61
+62 -62
+63 -63
+64 -64
+65 -65
+66 -66
+67 -67
+68 -68
+69 -69
+70 -70
+71 -71
+72 -72
+73 -73
+74 -74
+75 -75
+76 -76
+77 -77
+78 -78
+79 -79
+80 -80
+81 -81
+82 -82
+83 -83
+84 -84
+85 -85
+86 -86
EOF
